c Qdimacs file from skolem function generator
p cnf 722 1893
c a 462 463 464 465 466 467 468 469 470 471 472 473 474 475 476 477 478 479 480 481 482 483 484 485 486 487 488 489 490 491 492 493 494 495 496 497 498 499 500 501 502 503 504 505 506 507 508 509 510 511 512 513 514 515 516 517 518 519 520 521 522 523 524 525 526 527 528 529 530 531 532 533 534 535 536 537 538 539 540 541 542 543 544 545 546 547 548 549 550 551 552 553 554 555 556 557 558 559 560 561 562 563 564 565 566 567 568 569 570 571 572 573 574 575 576 577 578 579 580 581 582 583 584 585 586 587 588 589 590 591 592 593 594 595 596 597 598 599 600 601 602 603 604 605 606 607 608 609 610 611 612 613 614 615 616 617 618 619 620 621 622 623 624 625 626 627 628 629 630 631 632 633 634 635 636 637 638 639 640 641 642 643 644 645 646 647 648 649 650 651 652 653 654 655 656 657 658 659 660 661 662 663 664 665 666 667 668 669 670 671 672 673 674 675 676 677 678 679 680 681 682 683 684 685 686 687 688 689 690 691 692 693 694 695 696 697 698 699 700 701 702 703 704 705 706 707 708 709 710 711 712 713 714 715 716 717 718 719 720 721 0
c e 425 426 427 428 429 430 431 432 433 434 435 436 437 438 439 440 441 442 443 444 445 446 447 448 449 450 451 452 453 454 455 456 457 458 459 460 461 1 2 3 4 5 6 7 8 9 10 11 12 13 14 15 16 17 18 19 20 21 22 23 24 25 26 27 28 29 30 31 32 33 34 35 36 37 38 39 40 41 42 43 44 45 46 47 48 49 50 51 52 53 54 55 56 57 58 59 60 61 62 63 64 65 66 67 68 69 70 71 72 73 74 75 76 77 78 79 80 81 82 83 84 85 86 87 88 89 90 91 92 93 94 95 96 97 98 99 100 101 102 103 104 105 106 107 108 109 110 111 112 113 114 115 116 117 118 119 120 121 122 123 124 125 126 127 128 129 130 131 132 133 134 135 136 137 138 139 140 141 142 143 144 145 146 147 148 149 150 151 152 153 154 155 156 157 158 159 160 161 162 163 164 165 166 167 168 169 170 171 172 173 174 175 176 177 178 179 180 181 182 183 184 185 186 187 188 189 190 191 192 193 194 195 196 197 198 199 200 201 202 203 204 205 206 207 208 209 210 211 212 213 214 215 216 217 218 219 220 221 222 223 224 225 226 227 228 229 230 231 232 233 234 235 236 237 238 239 240 241 242 243 244 245 246 247 248 249 250 251 252 253 254 255 256 257 258 259 260 261 262 263 264 265 266 267 268 269 270 271 272 273 274 275 276 277 278 279 280 281 282 283 284 285 286 287 288 289 290 291 292 293 294 295 296 297 298 299 300 301 302 303 304 305 306 307 308 309 310 311 312 313 314 315 316 317 318 319 320 321 322 323 324 325 326 327 328 329 330 331 332 333 334 335 336 337 338 339 340 341 342 343 344 345 346 347 348 349 350 351 352 353 354 355 356 357 358 359 360 361 362 363 364 365 366 367 368 369 370 371 372 373 374 375 376 377 378 379 380 381 382 383 384 385 386 387 388 389 390 391 392 393 394 395 396 397 398 399 400 401 402 403 404 405 406 407 408 409 410 411 412 413 414 415 416 417 418 419 420 421 422 423 424 722 0
4 -5 -139 -388 -405 0
-4 405 0
-4 5 0
-4 388 0
-4 139 0
5 544 -6 -37 -70 0
5 -544 6 -37 -70 0
-5 70 0
-5 544 6 0
-5 37 0
-5 -544 -6 0
6 429 -7 0
6 -429 -22 0
-6 -429 22 0
-6 429 7 0
7 428 -8 0
7 -428 -15 0
-7 -428 15 0
-7 428 8 0
8 427 -9 0
8 -427 -12 0
-8 -427 12 0
-8 427 9 0
9 -426 -10 0
9 426 -11 0
-9 426 11 0
-9 -426 10 0
10 425 586 0
10 -425 542 0
-10 -425 -542 0
-10 425 -586 0
11 -425 553 0
11 425 517 0
-11 425 -517 0
-11 -425 -553 0
12 -426 -13 0
12 426 -14 0
-12 426 14 0
-12 -426 13 0
13 -425 516 0
13 425 486 0
-13 425 -486 0
-13 -425 -516 0
14 -425 585 0
14 425 507 0
-14 425 -507 0
-14 -425 -585 0
15 427 -16 0
15 -427 -19 0
-15 -427 19 0
-15 427 16 0
16 -426 -17 0
16 426 -18 0
-16 426 18 0
-16 -426 17 0
17 -425 515 0
17 425 480 0
-17 425 -480 0
-17 -425 -515 0
18 425 576 0
18 -425 537 0
-18 -425 -537 0
-18 425 -576 0
19 -426 -20 0
19 426 -21 0
-19 426 21 0
-19 -426 20 0
20 -425 541 0
20 425 506 0
-20 425 -506 0
-20 -425 -541 0
21 -425 584 0
21 425 487 0
-21 425 -487 0
-21 -425 -584 0
22 428 -23 0
22 -428 -30 0
-22 -428 30 0
-22 428 23 0
23 427 -24 0
23 -427 -27 0
-23 -427 27 0
-23 427 24 0
24 -426 -25 0
24 426 -26 0
-24 426 26 0
-24 -426 25 0
25 -425 571 0
25 425 518 0
-25 425 -518 0
-25 -425 -571 0
26 425 591 0
26 -425 554 0
-26 -425 -554 0
-26 425 -591 0
27 -426 -28 0
27 426 -29 0
-27 426 29 0
-27 -426 28 0
28 425 565 0
28 -425 527 0
-28 -425 -527 0
-28 425 -565 0
29 425 505 0
29 -425 473 0
-29 -425 -473 0
-29 425 -505 0
30 427 -31 0
30 -427 -34 0
-30 -427 34 0
-30 427 31 0
31 -426 -32 0
31 426 -33 0
-31 426 33 0
-31 -426 32 0
32 -425 549 0
32 425 536 0
-32 425 -536 0
-32 -425 -549 0
33 -425 574 0
33 425 560 0
-33 425 -560 0
-33 -425 -574 0
34 -426 -35 0
34 426 -36 0
-34 426 36 0
-34 -426 35 0
35 -425 573 0
35 425 478 0
-35 425 -478 0
-35 -425 -573 0
36 425 589 0
36 -425 546 0
-36 -425 -546 0
-36 425 -589 0
37 483 -495 38 -39 0
37 483 495 -38 -39 0
37 -483 495 -38 39 0
37 -483 -495 38 39 0
-37 -483 -39 0
-37 483 39 0
-37 -495 -38 0
-37 495 38 0
38 -429 -7 0
38 429 -22 0
-38 429 22 0
-38 -429 7 0
39 429 -40 0
39 -429 -55 0
-39 -429 55 0
-39 429 40 0
40 428 -41 0
40 -428 -48 0
-40 -428 48 0
-40 428 41 0
41 427 -42 0
41 -427 -45 0
-41 -427 45 0
-41 427 42 0
42 -426 -43 0
42 426 -44 0
-42 426 44 0
-42 -426 43 0
43 425 515 0
43 -425 487 0
-43 -425 -487 0
-43 425 -515 0
44 425 537 0
44 -425 480 0
-44 -425 -480 0
-44 425 -537 0
45 -426 -46 0
45 426 -47 0
-45 426 47 0
-45 -426 46 0
46 -425 591 0
46 425 541 0
-46 425 -541 0
-46 -425 -591 0
47 425 584 0
47 -425 506 0
-47 -425 -506 0
-47 425 -584 0
48 427 -49 0
48 -427 -52 0
-48 -427 52 0
-48 427 49 0
49 -426 -50 0
49 426 -51 0
-49 426 51 0
-49 -426 50 0
50 425 571 0
50 -425 505 0
-50 -425 -505 0
-50 425 -571 0
51 425 554 0
51 -425 518 0
-51 -425 -518 0
-51 425 -554 0
52 -426 -53 0
52 426 -54 0
-52 426 54 0
-52 -426 53 0
53 -425 560 0
53 425 527 0
-53 425 -527 0
-53 -425 -560 0
54 -425 565 0
54 425 473 0
-54 425 -473 0
-54 -425 -565 0
55 428 -56 0
55 -428 -63 0
-55 -428 63 0
-55 428 56 0
56 427 -57 0
56 -427 -60 0
-56 -427 60 0
-56 427 57 0
57 -426 -58 0
57 426 -59 0
-57 426 59 0
-57 -426 58 0
58 -425 589 0
58 425 549 0
-58 425 -549 0
-58 -425 -589 0
59 425 574 0
59 -425 536 0
-59 -425 -536 0
-59 425 -574 0
60 -426 -61 0
60 426 -62 0
-60 426 62 0
-60 -426 61 0
61 425 573 0
61 -425 517 0
-61 -425 -517 0
-61 425 -573 0
62 425 546 0
62 -425 478 0
-62 -425 -478 0
-62 425 -546 0
63 427 -64 0
63 -427 -67 0
-63 -427 67 0
-63 427 64 0
64 -426 -65 0
64 426 -66 0
-64 426 66 0
-64 -426 65 0
65 425 542 0
65 -425 507 0
-65 -425 -507 0
-65 425 -542 0
66 -425 586 0
66 425 553 0
-66 425 -553 0
-66 -425 -586 0
67 -426 -68 0
67 426 -69 0
-67 426 69 0
-67 -426 68 0
68 -425 576 0
68 425 516 0
-68 425 -516 0
-68 -425 -576 0
69 425 585 0
69 -425 486 0
-69 -425 -486 0
-69 425 -585 0
70 -71 -102 -109 -124 0
-70 124 0
-70 71 0
-70 109 0
-70 102 0
71 497 -540 72 -87 0
71 497 540 -72 -87 0
71 -497 540 -72 87 0
71 -497 -540 72 87 0
-71 -497 -87 0
-71 497 87 0
-71 -540 -72 0
-71 540 72 0
72 429 -73 0
72 -429 -80 0
-72 -429 80 0
-72 429 73 0
73 428 -74 0
73 -428 -77 0
-73 -428 77 0
-73 428 74 0
74 427 -75 0
74 -427 -76 0
-74 -427 76 0
-74 427 75 0
75 426 -53 0
75 -426 -59 0
-75 -426 59 0
-75 426 53 0
76 426 -58 0
76 -426 -62 0
-76 -426 62 0
-76 426 58 0
77 427 -78 0
77 -427 -79 0
-77 -427 79 0
-77 427 78 0
78 426 -61 0
78 -426 -66 0
-78 -426 66 0
-78 426 61 0
79 426 -65 0
79 -426 -69 0
-79 -426 69 0
-79 426 65 0
80 428 -81 0
80 -428 -84 0
-80 -428 84 0
-80 428 81 0
81 427 -82 0
81 -427 -83 0
-81 -427 83 0
-81 427 82 0
82 -426 -44 0
82 426 -68 0
-82 426 68 0
-82 -426 44 0
83 426 -43 0
83 -426 -47 0
-83 -426 47 0
-83 426 43 0
84 427 -85 0
84 -427 -86 0
-84 -427 86 0
-84 427 85 0
85 426 -46 0
85 -426 -51 0
-85 -426 51 0
-85 426 46 0
86 426 -50 0
86 -426 -54 0
-86 -426 54 0
-86 426 50 0
87 429 -88 0
87 -429 -95 0
-87 -429 95 0
-87 429 88 0
88 428 -89 0
88 -428 -92 0
-88 -428 92 0
-88 428 89 0
89 427 -90 0
89 -427 -91 0
-89 -427 91 0
-89 427 90 0
90 426 -32 0
90 -426 -36 0
-90 -426 36 0
-90 426 32 0
91 -426 -11 0
91 426 -35 0
-91 426 35 0
-91 -426 11 0
92 427 -93 0
92 -427 -94 0
-92 -427 94 0
-92 427 93 0
93 426 -10 0
93 -426 -14 0
-93 -426 14 0
-93 426 10 0
94 426 -13 0
94 -426 -18 0
-94 -426 18 0
-94 426 13 0
95 428 -96 0
95 -428 -99 0
-95 -428 99 0
-95 428 96 0
96 427 -97 0
96 -427 -98 0
-96 -427 98 0
-96 427 97 0
97 426 -17 0
97 -426 -21 0
-97 -426 21 0
-97 426 17 0
98 426 -20 0
98 -426 -26 0
-98 -426 26 0
-98 426 20 0
99 427 -100 0
99 -427 -101 0
-99 -427 101 0
-99 427 100 0
100 426 -25 0
100 -426 -29 0
-100 -426 29 0
-100 426 25 0
101 426 -28 0
101 -426 -33 0
-101 -426 33 0
-101 426 28 0
102 -550 590 103 -106 0
102 550 590 -103 -106 0
102 550 -590 -103 106 0
102 -550 -590 103 106 0
-102 -550 -103 0
-102 550 103 0
-102 590 106 0
-102 -590 -106 0
103 429 -104 0
103 -429 -105 0
-103 -429 105 0
-103 429 104 0
104 -428 -89 0
104 428 -99 0
-104 428 99 0
-104 -428 89 0
105 428 -92 0
105 -428 -96 0
-105 -428 96 0
-105 428 92 0
106 429 -107 0
106 -429 -108 0
-106 -429 108 0
-106 429 107 0
107 -428 -74 0
107 428 -84 0
-107 428 84 0
-107 -428 74 0
108 428 -77 0
108 -428 -81 0
-108 -428 81 0
-108 428 77 0
109 -471 510 110 -117 0
109 471 510 -110 -117 0
109 471 -510 -110 117 0
109 -471 -510 110 117 0
-109 -471 -110 0
-109 471 110 0
-109 510 117 0
-109 -510 -117 0
110 429 -111 0
110 -429 -114 0
-110 -429 114 0
-110 429 111 0
111 428 -112 0
111 -428 -113 0
-111 -428 113 0
-111 428 112 0
112 -427 -9 0
112 427 -34 0
-112 427 34 0
-112 -427 9 0
113 427 -12 0
113 -427 -16 0
-113 -427 16 0
-113 427 12 0
114 428 -115 0
114 -428 -116 0
-114 -428 116 0
-114 428 115 0
115 427 -19 0
115 -427 -24 0
-115 -427 24 0
-115 427 19 0
116 427 -27 0
116 -427 -31 0
-116 -427 31 0
-116 427 27 0
117 429 -118 0
117 -429 -121 0
-117 -429 121 0
-117 429 118 0
118 428 -119 0
118 -428 -120 0
-118 -428 120 0
-118 428 119 0
119 427 -91 0
119 -427 -93 0
-119 -427 93 0
-119 427 91 0
120 427 -94 0
120 -427 -97 0
-120 -427 97 0
-120 427 94 0
121 428 -122 0
121 -428 -123 0
-121 -428 123 0
-121 428 122 0
122 427 -98 0
122 -427 -100 0
-122 -427 100 0
-122 427 98 0
123 -427 -90 0
123 427 -101 0
-123 427 101 0
-123 -427 90 0
124 522 -535 125 -132 0
124 522 535 -125 -132 0
124 -522 535 -125 132 0
124 -522 -535 125 132 0
-124 -522 -132 0
-124 522 132 0
-124 -535 -125 0
-124 535 125 0
125 429 -126 0
125 -429 -129 0
-125 -429 129 0
-125 429 126 0
126 428 -127 0
126 -428 -128 0
-126 -428 128 0
-126 428 127 0
127 427 -79 0
127 -427 -82 0
-127 -427 82 0
-127 427 79 0
128 427 -83 0
128 -427 -85 0
-128 -427 85 0
-128 427 83 0
129 428 -130 0
129 -428 -131 0
-129 -428 131 0
-129 428 130 0
130 -427 -75 0
130 427 -86 0
-130 427 86 0
-130 -427 75 0
131 427 -76 0
131 -427 -78 0
-131 -427 78 0
-131 427 76 0
132 429 -133 0
132 -429 -136 0
-132 -429 136 0
-132 429 133 0
133 428 -134 0
133 -428 -135 0
-133 -428 135 0
-133 428 134 0
134 427 -45 0
134 -427 -49 0
-134 -427 49 0
-134 427 45 0
135 427 -52 0
135 -427 -57 0
-135 -427 57 0
-135 427 52 0
136 428 -137 0
136 -428 -138 0
-136 -428 138 0
-136 428 137 0
137 427 -60 0
137 -427 -64 0
-137 -427 64 0
-137 427 60 0
138 -427 -42 0
138 427 -67 0
-138 427 67 0
-138 -427 42 0
139 -140 -367 -380 -383 0
-139 383 0
-139 140 0
-139 380 0
-139 367 0
140 -141 -219 -246 -281 0
-140 281 0
-140 141 0
-140 246 0
-140 219 0
141 -142 -173 -198 -211 0
-141 211 0
-141 142 0
-141 198 0
-141 173 0
142 -562 568 -143 158 0
142 562 -568 143 -158 0
142 562 568 143 158 0
142 -562 -568 -143 -158 0
-142 -562 143 0
-142 562 -143 0
-142 568 -158 0
-142 -568 158 0
143 -428 -144 0
143 428 -151 0
-143 428 151 0
-143 -428 144 0
144 -427 -145 0
144 427 -148 0
-144 427 148 0
-144 -427 145 0
145 -426 -146 0
145 426 -147 0
-145 426 147 0
-145 -426 146 0
146 -425 -469 0
146 425 -569 0
-146 425 569 0
-146 -425 469 0
147 -425 -582 0
147 425 -583 0
-147 425 583 0
-147 -425 582 0
148 -426 -149 0
148 426 -150 0
-148 426 150 0
-148 -426 149 0
149 425 -463 0
149 -425 -500 0
-149 -425 500 0
-149 425 463 0
150 -425 -482 0
150 425 -489 0
-150 425 489 0
-150 -425 482 0
151 -427 -152 0
151 427 -155 0
-151 427 155 0
-151 -427 152 0
152 -426 -153 0
152 426 -154 0
-152 426 154 0
-152 -426 153 0
153 425 -512 0
153 -425 -534 0
-153 -425 534 0
-153 425 512 0
154 -425 -504 0
154 425 -524 0
-154 425 524 0
-154 -425 504 0
155 -426 -156 0
155 426 -157 0
-155 426 157 0
-155 -426 156 0
156 425 -523 0
156 -425 -563 0
-156 -425 563 0
-156 425 523 0
157 -425 -538 0
157 425 -545 0
-157 425 545 0
-157 -425 538 0
158 -428 -159 0
158 428 -166 0
-158 428 166 0
-158 -428 159 0
159 -427 -160 0
159 427 -163 0
-159 427 163 0
-159 -427 160 0
160 -426 -161 0
160 426 -162 0
-160 426 162 0
-160 -426 161 0
161 425 -504 0
161 -425 -512 0
-161 -425 512 0
-161 425 504 0
162 -425 -524 0
162 425 -563 0
-162 425 563 0
-162 -425 524 0
163 -426 -164 0
163 426 -165 0
-163 426 165 0
-163 -426 164 0
164 -425 -523 0
164 425 -538 0
-164 425 538 0
-164 -425 523 0
165 425 -531 0
165 -425 -545 0
-165 -425 545 0
-165 425 531 0
166 -427 -167 0
166 427 -170 0
-166 427 170 0
-166 -427 167 0
167 -426 -168 0
167 426 -169 0
-167 426 169 0
-167 -426 168 0
168 425 -519 0
168 -425 -557 0
-168 -425 557 0
-168 425 519 0
169 -425 -547 0
169 425 -577 0
-169 425 577 0
-169 -425 547 0
170 -426 -171 0
170 426 -172 0
-170 426 172 0
-170 -426 171 0
171 -425 -474 0
171 425 -496 0
-171 425 496 0
-171 -425 474 0
172 -425 -464 0
172 425 -551 0
-172 425 551 0
-172 -425 464 0
173 -468 484 -174 186 0
173 468 -484 174 -186 0
173 468 484 174 186 0
173 -468 -484 -174 -186 0
-173 -468 174 0
-173 468 -174 0
-173 484 -186 0
-173 -484 186 0
174 -428 -175 0
174 428 -182 0
-174 428 182 0
-174 -428 175 0
175 -427 -176 0
175 427 -179 0
-175 427 179 0
-175 -427 176 0
176 -426 -177 0
176 426 -178 0
-176 426 178 0
-176 -426 177 0
177 425 -474 0
177 -425 -577 0
-177 -425 577 0
-177 425 474 0
178 425 -464 0
178 -425 -496 0
-178 -425 496 0
-178 425 464 0
179 -426 -180 0
179 426 -181 0
-179 426 181 0
-179 -426 180 0
180 -425 -551 0
180 425 -566 0
-180 425 566 0
-180 -425 551 0
181 425 -479 0
181 -425 -498 0
-181 -425 498 0
-181 425 479 0
182 427 -145 0
182 -427 -183 0
-182 -427 183 0
-182 427 145 0
183 -426 -184 0
183 426 -185 0
-183 426 185 0
-183 -426 184 0
184 425 -558 0
184 -425 -588 0
-184 -425 588 0
-184 425 558 0
185 425 -485 0
185 -425 -509 0
-185 -425 509 0
-185 425 485 0
186 -428 -187 0
186 428 -194 0
-186 428 194 0
-186 -428 187 0
187 -427 -188 0
187 427 -191 0
-187 427 191 0
-187 -427 188 0
188 -426 -189 0
188 426 -190 0
-188 426 190 0
-188 -426 189 0
189 425 -469 0
189 -425 -485 0
-189 -425 485 0
-189 425 469 0
190 -425 -569 0
190 425 -582 0
-190 425 582 0
-190 -425 569 0
191 -426 -192 0
191 426 -193 0
-191 426 193 0
-191 -426 192 0
192 425 -500 0
192 -425 -583 0
-192 -425 583 0
-192 425 500 0
193 -425 -463 0
193 425 -482 0
-193 425 482 0
-193 -425 463 0
194 -427 -195 0
194 427 -197 0
-194 427 197 0
-194 -427 195 0
195 426 -161 0
195 -426 -196 0
-195 -426 196 0
-195 426 161 0
196 -425 -489 0
196 425 -534 0
-196 425 534 0
-196 -425 489 0
197 -426 -162 0
197 426 -164 0
-197 426 164 0
-197 -426 162 0
198 -526 559 -199 208 0
198 526 -559 199 -208 0
198 526 559 199 208 0
198 -526 -559 -199 -208 0
-198 -526 199 0
-198 526 -199 0
-198 559 -208 0
-198 -559 208 0
199 -428 -200 0
199 428 -204 0
-199 428 204 0
-199 -428 200 0
200 -427 -201 0
200 427 -202 0
-200 427 202 0
-200 -427 201 0
201 -426 -169 0
201 426 -171 0
-201 426 171 0
-201 -426 169 0
202 -426 -172 0
202 426 -203 0
-202 426 203 0
-202 -426 172 0
203 425 -498 0
203 -425 -566 0
-203 -425 566 0
-203 425 498 0
204 427 -188 0
204 -427 -205 0
-204 -427 205 0
-204 427 188 0
205 -426 -206 0
205 426 -207 0
-205 426 207 0
-205 -426 206 0
206 -425 -479 0
206 425 -588 0
-206 425 588 0
-206 -425 479 0
207 425 -509 0
207 -425 -558 0
-207 -425 558 0
-207 425 509 0
208 -428 -194 0
208 428 -209 0
-208 428 209 0
-208 -428 194 0
209 427 -201 0
209 -427 -210 0
-209 -427 210 0
-209 427 201 0
210 -426 -165 0
210 426 -168 0
-210 426 168 0
-210 -426 165 0
211 -499 555 212 -214 0
211 -499 -555 -212 -214 0
211 499 555 212 214 0
211 499 -555 -212 214 0
-211 499 -214 0
-211 -499 214 0
-211 -555 212 0
-211 555 -212 0
212 -428 -209 0
212 428 -213 0
-212 428 213 0
-212 -428 209 0
213 -427 -202 0
213 427 -205 0
-213 427 205 0
-213 -427 202 0
214 -428 -151 0
214 428 -215 0
-214 428 215 0
-214 -428 151 0
215 427 -176 0
215 -427 -216 0
-215 -427 216 0
-215 427 176 0
216 -426 -217 0
216 426 -218 0
-216 426 218 0
-216 -426 217 0
217 -425 -531 0
217 425 -557 0
-217 425 557 0
-217 -425 531 0
218 -425 -519 0
218 425 -547 0
-218 425 547 0
-218 -425 519 0
219 520 220 -223 -226 0
219 -520 -220 -223 -226 0
-219 226 0
-219 -520 220 0
-219 223 0
-219 520 -220 0
220 -428 -221 0
220 428 -222 0
-220 428 222 0
-220 -428 221 0
221 -427 -191 0
221 427 -195 0
-221 427 195 0
-221 -427 191 0
222 -427 -197 0
222 427 -210 0
-222 427 210 0
-222 -427 197 0
223 -466 548 224 -225 0
223 -466 -548 -224 -225 0
223 466 548 224 225 0
223 466 -548 -224 225 0
-223 466 -225 0
-223 -466 225 0
-223 -548 224 0
-223 548 -224 0
224 428 -187 0
224 -428 -213 0
-224 -428 213 0
-224 428 187 0
225 -428 -204 0
225 428 -221 0
-225 428 221 0
-225 -428 204 0
226 -491 -227 239 -244 0
226 491 -227 239 244 0
-226 -239 0
-226 491 -244 0
-226 227 0
-226 -491 244 0
227 -532 543 -228 235 0
227 532 -543 228 -235 0
227 532 543 228 235 0
227 -532 -543 -228 -235 0
-227 -532 228 0
-227 532 -228 0
-227 543 -235 0
-227 -543 235 0
228 -428 -229 0
228 428 -232 0
-228 428 232 0
-228 -428 229 0
229 -427 -230 0
229 427 -231 0
-229 427 231 0
-229 -427 230 0
230 -426 -181 0
230 426 -184 0
-230 426 184 0
-230 -426 181 0
231 426 -146 0
231 -426 -185 0
-231 -426 185 0
-231 426 146 0
232 -427 -233 0
232 427 -234 0
-232 427 234 0
-232 -427 233 0
233 -426 -147 0
233 426 -149 0
-233 426 149 0
-233 -426 147 0
234 -426 -150 0
234 426 -153 0
-234 426 153 0
-234 -426 150 0
235 -428 -236 0
235 428 -238 0
-235 428 238 0
-235 -428 236 0
236 427 -160 0
236 -427 -237 0
-236 -427 237 0
-236 427 160 0
237 -426 -193 0
237 426 -196 0
-237 426 196 0
-237 -426 193 0
238 -427 -163 0
238 427 -167 0
-238 427 167 0
-238 -427 163 0
239 580 -240 0
239 -580 240 0
-239 -580 -240 0
-239 580 240 0
240 428 -229 0
240 -428 -241 0
-240 -428 241 0
-240 428 229 0
241 -427 -242 0
241 427 -243 0
-241 427 243 0
-241 -427 242 0
242 426 -177 0
242 -426 -218 0
-242 -426 218 0
-242 426 177 0
243 -426 -178 0
243 426 -180 0
-243 426 180 0
-243 -426 178 0
244 428 -144 0
244 -428 -245 0
-244 -428 245 0
-244 428 144 0
245 -427 -179 0
245 427 -183 0
-245 427 183 0
-245 -427 179 0
246 -247 -258 -267 -274 0
-246 274 0
-246 247 0
-246 267 0
-246 258 0
247 570 248 254 256 0
247 -570 248 -254 256 0
-247 -248 0
-247 -570 254 0
-247 -256 0
-247 570 -254 0
248 488 -249 0
-248 -488 0
-248 249 0
249 -428 -250 0
249 428 -252 0
-249 428 252 0
-249 -428 250 0
250 -427 -234 0
250 427 -251 0
-250 427 251 0
-250 -427 234 0
251 -426 -154 0
251 426 -156 0
-251 426 156 0
-251 -426 154 0
252 427 -242 0
252 -427 -253 0
-252 -427 253 0
-252 427 242 0
253 -426 -157 0
253 426 -217 0
-253 426 217 0
-253 -426 157 0
254 -428 -232 0
254 428 -255 0
-254 428 255 0
-254 -428 232 0
255 -427 -251 0
255 427 -253 0
-255 427 253 0
-255 -427 251 0
256 -587 257 0
-256 587 0
-256 -257 0
257 428 -200 0
257 -428 -222 0
-257 -428 222 0
-257 428 200 0
258 477 259 263 266 0
258 -477 259 -263 266 0
-258 -259 0
-258 -477 263 0
-258 -266 0
-258 477 -263 0
259 501 -260 0
-259 -501 0
-259 260 0
260 428 -159 0
260 -428 -261 0
-260 -428 261 0
-260 428 159 0
261 427 -237 0
261 -427 -262 0
-261 -427 262 0
-261 427 237 0
262 -426 -190 0
262 426 -192 0
-262 426 192 0
-262 -426 190 0
263 -428 -264 0
263 428 -265 0
-263 428 265 0
-263 -428 264 0
264 427 -230 0
264 -427 -243 0
-264 -427 243 0
-264 427 230 0
265 -427 -231 0
265 427 -233 0
-265 427 233 0
-265 -427 231 0
266 -488 249 0
-266 488 0
-266 -249 0
267 494 268 271 272 0
267 -494 268 -271 272 0
-267 -268 0
-267 -494 271 0
-267 -272 0
-267 494 -271 0
268 525 -269 0
-268 -525 0
-268 269 0
269 -428 -182 0
269 428 -270 0
-269 428 270 0
-269 -428 182 0
270 -427 -148 0
270 427 -152 0
-270 427 152 0
-270 -427 148 0
271 -428 -252 0
271 428 -264 0
-271 428 264 0
-271 -428 252 0
272 -513 273 0
-272 513 0
-272 -273 0
273 428 -241 0
273 -428 -255 0
-273 -428 255 0
-273 428 241 0
274 539 275 276 280 0
274 -539 275 -276 280 0
-274 -275 0
-274 -539 276 0
-274 -280 0
-274 539 -276 0
275 587 -257 0
-275 -587 0
-275 257 0
276 -428 -166 0
276 428 -277 0
-276 428 277 0
-276 -428 166 0
277 -427 -278 0
277 427 -279 0
-277 427 279 0
-277 -427 278 0
278 -426 -203 0
278 426 -206 0
-278 426 206 0
-278 -426 203 0
279 426 -189 0
279 -426 -207 0
-279 -426 207 0
-279 426 189 0
280 -525 269 0
-280 525 0
-280 -269 0
281 -282 -286 -290 -296 0
-281 296 0
-281 282 0
-281 290 0
-281 286 0
282 -481 579 283 -285 0
282 -481 -579 -283 -285 0
282 481 579 283 285 0
282 481 -579 -283 285 0
-282 481 -285 0
-282 -481 285 0
-282 -579 283 0
-282 579 -283 0
283 -428 -270 0
283 428 -284 0
-283 428 284 0
-283 -428 270 0
284 -427 -155 0
284 427 -216 0
-284 427 216 0
-284 -427 155 0
285 -428 -215 0
285 428 -245 0
-285 428 245 0
-285 -428 215 0
286 -475 581 -287 288 0
286 475 -581 287 -288 0
286 475 581 287 288 0
286 -475 -581 -287 -288 0
-286 -475 287 0
-286 475 -287 0
-286 581 -288 0
-286 -581 288 0
287 428 -261 0
287 -428 -277 0
-287 -428 277 0
-287 428 261 0
288 428 -236 0
288 -428 -289 0
-288 -428 289 0
-288 428 236 0
289 427 -262 0
289 -427 -279 0
-289 -427 279 0
-289 427 262 0
290 511 291 294 295 0
290 -511 291 -294 295 0
-290 -291 0
-290 -511 294 0
-290 -295 0
-290 511 -294 0
291 567 -292 0
-291 -567 0
-291 292 0
292 -428 -238 0
292 428 -293 0
-292 428 293 0
-292 -428 238 0
293 -427 -170 0
293 427 -278 0
-293 427 278 0
-293 -427 170 0
294 428 -175 0
294 -428 -284 0
-294 -428 284 0
-294 428 175 0
295 -501 260 0
-295 501 0
-295 -260 0
296 508 297 -298 366 0
296 -508 -297 -298 366 0
-296 -366 0
-296 -508 297 0
-296 298 0
-296 508 -297 0
297 428 -250 0
297 -428 -265 0
-297 -428 265 0
-297 428 250 0
298 -299 -317 -325 -343 0
-298 343 0
-298 299 0
-298 325 0
-298 317 0
299 -300 -306 -311 -314 0
-299 314 0
-299 300 0
-299 311 0
-299 306 0
300 -301 -302 -303 -305 0
-300 305 0
-300 301 0
-300 303 0
-300 302 0
301 -433 455 0
301 -553 565 0
301 455 565 0
301 -433 -553 0
-301 -455 553 0
-301 433 -565 0
302 430 441 0
302 -480 -485 0
302 430 -485 0
302 441 -480 0
-302 -430 480 0
-302 -441 485 0
303 -437 -560 -304 0
303 437 560 -304 0
-303 304 0
-303 -437 560 0
-303 437 -560 0
304 433 553 0
304 -455 -565 0
304 433 -455 0
304 553 -565 0
-304 -433 565 0
-304 455 -553 0
305 -440 460 -518 524 0
305 440 -460 518 -524 0
305 440 460 518 524 0
305 -440 -460 -518 -524 0
-305 -440 518 0
-305 440 -518 0
-305 460 -524 0
-305 -460 524 0
306 -307 -308 -309 -310 0
-306 310 0
-306 307 0
-306 309 0
-306 308 0
307 -430 431 527 -557 0
307 -430 -431 -527 -557 0
307 430 431 527 557 0
307 430 -431 -527 557 0
-307 430 -557 0
-307 -430 557 0
-307 -431 527 0
-307 431 -527 0
308 -438 453 486 -542 0
308 -438 -453 -486 -542 0
308 438 453 486 542 0
308 438 -453 -486 542 0
-308 438 -542 0
-308 -438 542 0
-308 -453 486 0
-308 453 -486 0
309 -434 435 -537 541 0
309 434 -435 537 -541 0
309 434 435 537 541 0
309 -434 -435 -537 -541 0
-309 -434 537 0
-309 434 -537 0
-309 435 -541 0
-309 -435 541 0
310 -438 451 -551 566 0
310 438 -451 551 -566 0
310 438 451 551 566 0
310 -438 -451 -551 -566 0
-310 -438 551 0
-310 438 -551 0
-310 451 -566 0
-310 -451 566 0
311 451 586 -312 -313 0
311 -451 -586 -312 -313 0
-311 313 0
-311 -451 586 0
-311 312 0
-311 451 -586 0
312 -444 -536 0
312 448 464 0
312 464 -536 0
312 -444 448 0
-312 -448 536 0
-312 444 -464 0
313 -434 443 482 -519 0
313 -434 -443 -482 -519 0
313 434 443 482 519 0
313 434 -443 -482 519 0
-313 434 -519 0
-313 -434 519 0
-313 -443 482 0
-313 443 -482 0
314 439 496 -315 -316 0
314 -439 -496 -315 -316 0
-314 316 0
-314 -439 496 0
-314 315 0
-314 439 -496 0
315 -440 443 473 -512 0
315 -440 -443 -473 -512 0
315 440 443 473 512 0
315 440 -443 -473 512 0
-315 440 -512 0
-315 -440 512 0
-315 -443 473 0
-315 443 -473 0
316 -441 444 0
316 -464 485 0
316 444 485 0
316 -441 -464 0
-316 -444 464 0
-316 441 -485 0
317 442 523 -318 -319 0
317 -442 -523 -318 -319 0
-317 319 0
-317 -442 523 0
-317 318 0
-317 442 -523 0
318 -435 455 498 -563 0
318 -435 -455 -498 -563 0
318 435 455 498 563 0
318 435 -455 -498 563 0
-318 435 -563 0
-318 -435 563 0
-318 -455 498 0
-318 455 -498 0
319 -320 -321 -322 -324 0
-319 324 0
-319 320 0
-319 322 0
-319 321 0
320 -436 450 487 -554 0
320 -436 -450 -487 -554 0
320 436 450 487 554 0
320 436 -450 -487 554 0
-320 436 -554 0
-320 -436 554 0
-320 -450 487 0
-320 450 -487 0
321 -452 456 489 -549 0
321 -452 -456 -489 -549 0
321 452 456 489 549 0
321 452 -456 -489 549 0
-321 452 -549 0
-321 -452 549 0
-321 -456 489 0
-321 456 -489 0
322 -454 -515 323 0
322 454 531 323 0
-322 -323 0
-322 -454 515 0
-322 454 -531 0
323 456 -505 0
323 -456 505 0
-323 -456 -505 0
-323 456 505 0
324 -453 457 -474 546 0
324 453 -457 474 -546 0
324 453 457 474 546 0
324 -453 -457 -474 -546 0
-324 -453 474 0
-324 453 -474 0
-324 457 -546 0
-324 -457 546 0
325 -326 -336 -337 -338 0
-325 338 0
-325 326 0
-325 337 0
-325 336 0
326 -327 -330 -333 -334 0
-326 334 0
-326 327 0
-326 333 0
-326 330 0
327 449 571 328 329 0
327 -449 -571 328 329 0
-327 -328 0
-327 -449 571 0
-327 -329 0
-327 449 -571 0
328 431 -500 0
-328 -431 0
-328 500 0
329 439 -585 0
-329 -439 0
-329 585 0
330 445 574 331 332 0
330 -445 -574 331 332 0
-330 -331 0
-330 -445 574 0
-330 -332 0
-330 445 -574 0
331 436 -504 0
-331 -436 0
-331 504 0
332 -431 500 0
-332 431 0
-332 -500 0
333 -447 450 545 -547 0
333 -447 -450 -545 -547 0
333 447 450 545 547 0
333 447 -450 -545 547 0
-333 447 -547 0
-333 -447 547 0
-333 -450 545 0
-333 450 -545 0
334 -446 -538 -335 0
334 446 538 -335 0
-334 335 0
-334 -446 538 0
-334 446 -538 0
335 -432 -588 0
335 461 478 0
335 478 -588 0
335 -432 461 0
-335 -461 588 0
-335 432 -478 0
336 -429 444 -503 507 0
336 429 -444 503 -507 0
336 429 444 503 507 0
336 -429 -444 -503 -507 0
-336 -429 503 0
-336 429 -503 0
-336 444 -507 0
-336 -444 507 0
337 -437 445 582 -583 0
337 -437 -445 -582 -583 0
337 437 445 582 583 0
337 437 -445 -582 583 0
-337 437 -583 0
-337 -437 583 0
-337 -445 582 0
-337 445 -582 0
338 460 591 -339 -342 0
338 -460 -591 -339 -342 0
-338 342 0
-338 -460 591 0
-338 339 0
-338 460 -591 0
339 447 576 340 341 0
339 -447 -576 340 341 0
-339 -340 0
-339 -447 576 0
-339 -341 0
-339 447 -576 0
340 461 -588 0
-340 -461 0
-340 588 0
341 -436 504 0
-341 436 0
-341 -504 0
342 -449 -467 0
342 -467 534 0
-342 467 0
-342 449 -534 0
343 -344 -355 -360 -363 0
-343 363 0
-343 344 0
-343 360 0
-343 355 0
344 -345 -350 -351 -352 0
-344 352 0
-344 345 0
-344 351 0
-344 350 0
345 441 589 -346 -347 0
345 -441 -589 -346 -347 0
-345 347 0
-345 -441 589 0
-345 346 0
-345 441 -589 0
346 442 446 0
346 -506 -584 0
346 442 -584 0
346 446 -506 0
-346 -442 506 0
-346 -446 584 0
347 458 479 348 349 0
347 -458 -479 348 349 0
-347 -348 0
-347 -458 479 0
-347 -349 0
-347 458 -479 0
348 452 -469 0
-348 -452 0
-348 469 0
349 -433 463 0
-349 433 0
-349 -463 0
350 439 448 0
350 -569 -585 0
350 448 -585 0
350 439 -569 0
-350 -448 569 0
-350 -439 585 0
351 -448 480 0
351 -430 536 0
351 -430 -448 0
351 480 536 0
-351 448 -536 0
-351 430 -480 0
352 457 509 353 354 0
352 -457 -509 353 354 0
-352 -353 0
-352 -457 509 0
-352 -354 0
-352 457 -509 0
353 446 -584 0
-353 -446 0
-353 584 0
354 442 -506 0
-354 -442 0
-354 506 0
355 -356 -357 -358 0
-355 356 0
-355 357 0
-355 358 0
356 449 517 0
356 -458 -534 0
356 449 -458 0
356 517 -534 0
-356 -449 534 0
-356 458 -517 0
357 -448 -577 0
357 459 569 0
357 569 -577 0
357 -448 459 0
-357 -459 577 0
-357 448 -569 0
358 432 558 359 0
358 -432 -478 -558 359 0
-358 -432 478 0
-358 432 -558 0
-358 -359 0
-358 -432 558 0
359 -458 517 0
-359 458 0
-359 -517 0
360 459 516 361 362 0
360 -459 -516 361 362 0
-360 -361 0
-360 -459 516 0
-360 -362 0
-360 459 -516 0
361 433 -463 0
-361 -433 0
-361 463 0
362 -452 469 0
-362 452 0
-362 -469 0
363 461 573 364 365 0
363 -461 -573 364 365 0
-363 -364 0
-363 -461 573 0
-363 -365 0
-363 461 -573 0
364 459 -577 0
-364 -459 0
-364 577 0
365 -515 531 0
-365 515 0
-365 -531 0
366 -567 292 0
-366 567 0
-366 -292 0
367 561 -368 375 -377 0
367 -561 -368 375 377 0
-367 -375 0
-367 -561 -377 0
-367 368 0
-367 561 377 0
368 502 -578 369 -372 0
368 502 578 -369 -372 0
368 -502 578 -369 372 0
368 -502 -578 369 372 0
-368 -502 -372 0
-368 502 372 0
-368 -578 -369 0
-368 578 369 0
369 429 -370 0
369 -429 -371 0
-369 -429 371 0
-369 429 370 0
370 -428 -41 0
370 428 -63 0
-370 428 63 0
-370 -428 41 0
371 428 -48 0
371 -428 -56 0
-371 -428 56 0
-371 428 48 0
372 429 -373 0
372 -429 -374 0
-372 -429 374 0
-372 429 373 0
373 -428 -119 0
373 428 -123 0
-373 428 123 0
-373 -428 119 0
374 428 -120 0
374 -428 -122 0
-374 -428 122 0
-374 428 120 0
375 -528 -376 0
375 528 376 0
-375 528 -376 0
-375 -528 376 0
376 -429 -107 0
376 429 -108 0
-376 429 108 0
-376 -429 107 0
377 429 -378 0
377 -429 -379 0
-377 -429 379 0
-377 429 378 0
378 -428 -127 0
378 428 -131 0
-378 428 131 0
-378 -428 127 0
379 428 -128 0
379 -428 -130 0
-379 -428 130 0
-379 428 128 0
380 -465 521 381 -382 0
380 465 521 -381 -382 0
380 465 -521 -381 382 0
380 -465 -521 381 382 0
-380 -465 -381 0
-380 465 381 0
-380 521 382 0
-380 -521 -382 0
381 -429 -111 0
381 429 -114 0
-381 429 114 0
-381 -429 111 0
382 -429 -370 0
382 429 -371 0
-382 429 371 0
-382 -429 370 0
383 470 -476 384 -385 0
383 470 476 -384 -385 0
383 -470 476 -384 385 0
383 -470 -476 384 385 0
-383 -470 -385 0
-383 470 385 0
-383 -476 -384 0
-383 476 384 0
384 -429 -373 0
384 429 -374 0
-384 429 374 0
-384 -429 373 0
385 429 -386 0
385 -429 -387 0
-385 -429 387 0
-385 429 386 0
386 -428 -112 0
386 428 -116 0
-386 428 116 0
-386 -428 112 0
387 428 -113 0
387 -428 -115 0
-387 -428 115 0
-387 428 113 0
388 -472 389 392 -394 0
388 472 -389 392 -394 0
-388 394 0
-388 472 389 0
-388 -392 0
-388 -472 -389 0
389 429 -390 0
389 -429 -391 0
-389 -429 391 0
-389 429 390 0
390 428 -135 0
390 -428 -137 0
-390 -428 137 0
-390 428 135 0
391 -428 -134 0
391 428 -138 0
-391 428 138 0
-391 -428 134 0
392 -552 -393 0
-392 552 0
-392 393 0
393 -429 -386 0
393 429 -387 0
-393 429 387 0
-393 -429 386 0
394 493 -395 -397 -398 0
394 -493 -395 397 -398 0
-394 398 0
-394 -493 -397 0
-394 395 0
-394 493 397 0
395 -552 572 0
395 -393 396 0
395 -552 396 0
395 572 -393 0
-395 552 393 0
-395 -572 -396 0
396 -429 -378 0
396 429 -379 0
-396 429 379 0
-396 -429 378 0
397 -429 -40 0
397 429 -55 0
-397 429 55 0
-397 -429 40 0
398 490 -399 402 0
398 -399 402 404 0
-398 399 0
-398 -402 0
-398 -490 -404 0
399 -556 400 0
399 575 -401 0
399 400 -401 0
399 -556 575 0
-399 -575 -400 0
-399 556 401 0
400 -429 -390 0
400 429 -391 0
-400 429 391 0
-400 -429 390 0
401 -429 -126 0
401 429 -129 0
-401 429 129 0
-401 -429 126 0
402 -492 -403 0
-402 492 0
-402 403 0
403 -429 -133 0
403 429 -136 0
-403 429 136 0
-403 -429 133 0
404 -429 -104 0
404 429 -105 0
-404 429 105 0
-404 -429 104 0
405 -406 -419 -420 -421 0
-405 421 0
-405 406 0
-405 420 0
-405 419 0
406 -407 -409 -414 -418 0
-406 418 0
-406 407 0
-406 414 0
-406 409 0
407 -514 -403 0
407 -492 -408 0
407 -492 -514 0
407 -403 -408 0
-407 514 408 0
-407 492 403 0
408 -429 -73 0
408 429 -80 0
-408 429 80 0
-408 -429 73 0
409 -462 -410 0
409 -530 -411 0
409 -462 -530 0
409 -410 -411 0
-409 530 410 0
-409 462 411 0
410 -429 -88 0
410 429 -95 0
-410 429 95 0
-410 -429 88 0
411 429 -412 0
411 -429 -413 0
-411 -429 413 0
-411 429 412 0
412 428 -15 0
412 -428 -23 0
-412 -428 23 0
-412 428 15 0
413 -428 -8 0
413 428 -30 0
-413 428 30 0
-413 -428 8 0
414 -415 -416 0
414 -529 -416 0
-414 416 0
-414 529 415 0
415 -429 -118 0
415 429 -121 0
-415 429 121 0
-415 -429 118 0
416 -513 533 417 0
416 -533 273 -417 0
416 -513 -533 -417 0
416 533 273 417 0
-416 533 -417 0
-416 -533 417 0
-416 513 -273 0
417 428 -289 0
417 -428 -293 0
-417 -428 293 0
-417 428 289 0
418 -490 401 0
418 556 -404 0
418 401 -404 0
418 -490 556 0
-418 -556 -401 0
-418 490 404 0
419 -575 411 0
419 462 -400 0
419 462 -575 0
419 -400 411 0
-419 -462 -411 0
-419 575 400 0
420 410 415 0
420 529 530 0
420 530 415 0
420 529 410 0
-420 -530 -410 0
-420 -529 -415 0
421 564 -422 423 424 0
421 -564 422 423 424 0
-421 -423 0
-421 564 422 0
-421 -424 0
-421 -564 -422 0
422 -429 -412 0
422 429 -413 0
-422 429 413 0
-422 -429 412 0
423 572 396 0
-423 -572 0
-423 -396 0
424 -514 -408 0
-424 514 0
-424 408 0
722 0
2 4 0
-2 -4 0
3 4 0
-3 -4 0
3 0

